problems/csplib-prob013-decision/ProgressivePartyProblem-models/noch/O2/minion/model_2-Ian04-07-solution000001.solution
language Essence 1.3

letting hosts be {1, 2, 3, 4, 5, 6, 7}
letting sched be
        {function(1 --> 1, 2 --> 2, 3 --> 3, 4 --> 4, 5 --> 5, 6 --> 6, 7 --> 7, 8 --> 1),
         function(1 --> 1, 2 --> 2, 3 --> 3, 4 --> 4, 5 --> 5, 6 --> 6, 7 --> 7, 8 --> 2),
         function(1 --> 1, 2 --> 2, 3 --> 3, 4 --> 4, 5 --> 5, 6 --> 6, 7 --> 7, 8 --> 3),
         function(1 --> 1, 2 --> 2, 3 --> 3, 4 --> 4, 5 --> 5, 6 --> 6, 7 --> 7, 8 --> 4),
         function(1 --> 1, 2 --> 2, 3 --> 3, 4 --> 4, 5 --> 5, 6 --> 6, 7 --> 7, 8 --> 5),
         function(1 --> 1, 2 --> 2, 3 --> 3, 4 --> 4, 5 --> 5, 6 --> 6, 7 --> 7, 8 --> 6)}
$ Visualisation for sched
$ 1 2 3 4 5 6 7 1
$ 1 2 3 4 5 6 7 2
$ 1 2 3 4 5 6 7 3
$ 1 2 3 4 5 6 7 4
$ 1 2 3 4 5 6 7 5
$ 1 2 3 4 5 6 7 6

